# Objective value = 9.2668699999999590e+03
I_0_0 3343
I_0_1 4.2649999999997854e+03
I_0_2 3.5829999999998286e+03
I_0_3 4.9620000000002346e+03
I_1_0 192
I_1_1 192
I_1_2 9.6000000000000028e+01
I_1_3 5.2686563441933379e-11
I_2_0 166
I_2_1 8.2999999999959172e+01
I_2_2 166
I_2_3 8.2999999999999986e+01
I_3_0 97
I_3_1 0
I_3_2 97
I_3_3 -9.9096494898809340e-12
I_4_0 85
I_4_1 1.3319087152630082e-10
I_4_2 8.5000000000012463e+01
I_4_3 0
I_5_0 83
I_5_1 -1.6958781601239536e-11
I_5_2 8.3000000000016939e+01
I_5_3 -1.6958781601239536e-11
I_6_0 108
I_6_1 54
I_6_2 1.0800000000001363e+02
I_6_3 5.3999999999999993e+01
I_7_0 77
I_7_1 77
I_7_2 7.6999999999985874e+01
I_7_3 1.4129727485760023e-11
I_8_0 78
I_8_1 -2.2045802683390292e-12
I_8_2 78.0000000000022
I_8_3 -2.2045802683390292e-12
I_9_0 54
I_9_1 -2.7559204918148339e-12
I_9_2 5.4000000000002743e+01
I_9_3 -2.7559204918148339e-12
I_10_0 162
I_10_1 1.6200000000004792e+02
I_10_2 8.1000000000047947e+01
I_10_3 -9.5876195871369418e-11
I_11_0 82
I_11_1 41
I_11_2 82
I_11_3 41
I_12_0 69
I_12_1 69
I_12_2 6.9000000000028038e+01
I_12_3 -2.8044275235394878e-11
I_13_0 65
I_13_1 -3.7209818559702512e-15
I_13_2 65
I_13_3 -3.7209818559702512e-15
I_14_0 36
I_14_1 1.7999999999992372e+01
I_14_2 3.5999999999998657e+01
I_14_3 1.8000000000012118e+01
I_15_0 35
I_15_1 4.24242238561412e-12
I_15_2 3.4999999999995758e+01
I_15_3 4.24242238561412e-12
I_16_0 15
I_16_1 0
I_16_2 1.5000000000004666e+01
I_16_3 -4.6620519944529093e-12
I_17_0 72
I_17_1 72
I_17_2 3.6000000000040728e+01
I_17_3 4.0726655158028228e-11
I_18_0 116
I_18_1 116
I_18_2 116
I_18_3 5.7999999999916447e+01
I_19_0 19
I_19_1 -1.1188647230930826e-11
I_19_2 1.9000000000004380e+01
I_19_3 -4.3705941643601420e-12
I_20_0 72
I_20_1 7.1801564693885211e-11
I_20_2 7.1999999999999744e+01
I_20_3 0
I_21_0 54
I_21_1 5.4000000000010829e+01
I_21_2 2.7000000000010832e+01
I_21_3 -2.1667832258859733e-11
I_22_0 54
I_22_1 2.6999999999996732e+01
I_22_2 5.4000000000001855e+01
I_22_3 2.6999999999997087e+01
I_23_0 128
I_23_1 6.4000000000046967e+01
I_23_2 1.2800000000000009e+02
I_23_3 6.3999999999921592e+01
I_24_0 32
I_24_1 0
I_24_2 32
I_24_3 0
I_25_0 13
I_25_1 13
I_25_2 1.3000000000006054e+01
I_25_3 -6.0541502366895372e-12
q_1_0 96
q_1_1 0
q_1_2 5.2655432152408489e-11
q_2_0 -4.0828404160939865e-11
q_2_1 1.6600000000004081e+02
q_2_2 0
q_3_0 0
q_3_1 194
q_3_2 -9.9096494898809340e-12
q_4_0 1.3319087152630082e-10
q_4_1 1.6999999999987926e+02
q_4_2 -1.2462919585232157e-11
q_5_0 -1.6958781601239536e-11
q_5_1 1.6600000000003388e+02
q_5_2 -3.3898120421760325e-11
q_6_0 0
q_6_1 1.0800000000001364e+02
q_6_2 -1.3624656958199921e-11
q_7_0 77
q_7_1 7.6999999999985874e+01
q_7_2 2.8255317072670814e-11
q_8_0 -2.2045802683390292e-12
q_8_1 1.5600000000000441e+02
q_8_2 -4.40726274919534e-12
q_9_0 -2.7559204918148339e-12
q_9_1 1.0800000000000550e+02
q_9_2 -5.4986154518488206e-12
q_10_0 8.1000000000047919e+01
q_10_1 0
q_10_2 -1.4382095514520188e-10
q_11_0 0
q_11_1 82
q_11_2 0
q_12_0 69
q_12_1 6.9000000000028038e+01
q_12_2 -5.6082291588488431e-11
q_13_0 -3.7209818559702512e-15
q_13_1 130
q_13_2 -3.7209818559702512e-15
q_14_0 -7.6281481131701412e-12
q_14_1 3.6000000000006288e+01
q_14_2 1.3461504803372752e-11
q_15_0 4.24242238561412e-12
q_15_1 6.9999999999991516e+01
q_15_2 8.4843625181019178e-12
q_16_0 0
q_16_1 3.0000000000004668e+01
q_16_2 -9.3285414115573673e-12
q_17_0 36
q_17_1 4.0726655158028228e-11
q_17_2 0
q_18_0 58
q_18_1 58
q_18_2 -8.3554496654869581e-11
q_19_0 -1.1188647230930826e-11
q_19_1 3.8000000000015568e+01
q_19_2 -8.75109013032116e-12
q_20_0 7.1801564693885211e-11
q_20_1 1.4399999999992792e+02
q_20_2 2.5579538487363607e-13
q_21_0 2.7000000000010832e+01
q_21_1 0
q_21_2 -3.2500576033101714e-11
q_22_0 -3.2700092633675126e-12
q_22_1 5.4000000000005137e+01
q_22_2 -4.7666547717497711e-12
q_23_0 4.6965653588415535e-11
q_23_1 1.2799999999996815e+02
q_23_2 -7.8487882859690217e-11
q_24_0 0
q_24_1 64
q_24_2 0
q_25_0 13
q_25_1 1.3000000000006054e+01
q_25_2 -1.2107974345365591e-11
y_0_0 1
y_0_1 1
y_0_2 -3.8388389689281155e-13
y_1_0 1
y_1_1 0
y_1_2 5.4880911732826753e-13
y_2_0 -4.9190848386674538e-13
y_2_1 1
y_2_2 0
y_3_0 0
y_3_1 1
y_3_2 -1.0216133494722612e-13
y_4_0 1.5669514297211862e-12
y_4_1 1.0000000000001465e+00
y_4_2 0
y_5_0 -2.0432266989445225e-13
y_5_1 1.0000000000002041e+00
y_5_2 -2.0432266989445225e-13
y_6_0 0
y_6_1 1.0000000000001266e+00
y_6_2 -3.9069442125949649e-14
y_7_0 1
y_7_1 9.9999999999981648e-01
y_7_2 1.8350295436051977e-13
y_8_0 -2.8263849594090118e-14
y_8_1 1.0000000000000282e+00
y_8_2 -2.8263849594090118e-14
y_9_0 -5.1035564663237665e-14
y_9_1 1.0000000000000508e+00
y_9_2 -5.1035564663237665e-14
y_10_0 1.0000000000005915e+00
y_10_1 0
y_10_2 -5.9182519995815142e-13
y_11_0 0
y_11_1 1
y_11_2 0
y_12_0 1
y_12_1 1.0000000000004063e+00
y_12_2 -4.06438771527462e-13
y_13_0 -5.7245874707234634e-17
y_13_1 1
y_13_2 -5.7245874707234634e-17
y_14_0 -4.2378600628723007e-13
y_14_1 1.0000000000001743e+00
y_14_2 2.4940153083937521e-13
y_15_0 1.2121206816040342e-13
y_15_1 9.9999999999987876e-01
y_15_2 1.2121206816040342e-13
y_16_0 0
y_16_1 1.0000000000003111e+00
y_16_2 -3.1080346629686062e-13
y_17_0 1
y_17_1 5.6564798830594762e-13
y_17_2 0
y_18_0 1
y_18_1 1
y_18_2 -4.8019921372599583e-13
y_19_0 -5.8887617004899084e-13
y_19_1 1.0000000000002305e+00
y_19_2 -2.3003127180842853e-13
y_20_0 9.97243954081739e-13
y_20_1 9.9999999999999645e-01
y_20_2 0
y_21_0 1.0000000000004012e+00
y_21_1 0
y_21_2 -4.0131513549480966e-13
y_22_0 -1.2111145419879676e-13
y_22_1 9.9999999999998046e-01
y_22_2 -8.8269768840748758e-14
y_23_0 7.3383833731899273e-13
y_23_1 9.9999999999942346e-01
y_23_2 -3.8388389689281155e-13
y_24_0 0
y_24_1 1
y_24_2 0
y_25_0 1
y_25_1 1.0000000000004656e+00
y_25_2 -4.6570386436073363e-13
x_0_1_0 0
x_0_1_1 0
x_0_1_2 0
x_0_2_0 0
x_0_2_1 0
x_0_2_2 0
x_0_3_0 0
x_0_3_1 0
x_0_3_2 0
x_0_4_0 0
x_0_4_1 0
x_0_4_2 0
x_0_5_0 0
x_0_5_1 0
x_0_5_2 0
x_0_6_0 0
x_0_6_1 0
x_0_6_2 0
x_0_7_0 0
x_0_7_1 0
x_0_7_2 0
x_0_8_0 0
x_0_8_1 0
x_0_8_2 0
x_0_9_0 0
x_0_9_1 0
x_0_9_2 0
x_0_10_0 0
x_0_10_1 0
x_0_10_2 0
x_0_11_0 0
x_0_11_1 0
x_0_11_2 0
x_0_12_0 0
x_0_12_1 0
x_0_12_2 0
x_0_13_0 0
x_0_13_1 0
x_0_13_2 0
x_0_14_0 0
x_0_14_1 0
x_0_14_2 0
x_0_15_0 0
x_0_15_1 0
x_0_15_2 0
x_0_16_0 0
x_0_16_1 0
x_0_16_2 0
x_0_17_0 0.999999999999795
x_0_17_1 0
x_0_17_2 0
x_0_18_0 9.9999999999873734e-01
x_0_18_1 -4.65676108785118e-13
x_0_18_2 0
x_0_19_0 0
x_0_19_1 0
x_0_19_2 0
x_0_20_0 0
x_0_20_1 1.0000000000003719e+00
x_0_20_2 0
x_0_21_0 0
x_0_21_1 0
x_0_21_2 0
x_0_22_0 0
x_0_22_1 0
x_0_22_2 0
x_0_23_0 9.96577820266964e-13
x_0_23_1 0
x_0_23_2 -7.6776779378562310e-13
x_0_24_0 0
x_0_24_1 1.0000000000000939e+00
x_0_24_2 0
x_0_25_0 0
x_0_25_1 0
x_0_25_2 0
x_1_2_0 0
x_1_2_1 0
x_1_2_2 0
x_1_3_0 0
x_1_3_1 0
x_1_3_2 0
x_1_4_0 1.5668716324412912e-12
x_1_4_1 0
x_1_4_2 5.4880320426932115e-13
x_1_5_0 0
x_1_5_1 0
x_1_5_2 0
x_1_6_0 0
x_1_6_1 0
x_1_6_2 0
x_1_7_0 1.0000000000002160e+00
x_1_7_1 0
x_1_7_2 5.4880217843436352e-13
x_1_8_0 9.2530150208602890e-14
x_1_8_1 0
x_1_8_2 0
x_1_9_0 0
x_1_9_1 0
x_1_9_2 0
x_1_10_0 0
x_1_10_1 0
x_1_10_2 0
x_1_11_0 0
x_1_11_1 0
x_1_11_2 0
x_1_12_0 9.9999999999872891e-01
x_1_12_1 0
x_1_12_2 0
x_1_13_0 0
x_1_13_1 0
x_1_13_2 0
x_1_14_0 -6.0461011197610048e-13
x_1_14_1 0
x_1_14_2 0
x_1_15_0 0
x_1_15_1 0
x_1_15_2 0
x_1_16_0 0
x_1_16_1 0
x_1_16_2 0
x_1_17_0 0
x_1_17_1 0
x_1_17_2 0
x_1_18_0 0
x_1_18_1 0
x_1_18_2 0
x_1_19_0 0
x_1_19_1 0
x_1_19_2 0
x_1_20_0 0
x_1_20_1 0
x_1_20_2 0
x_1_21_0 0
x_1_21_1 0
x_1_21_2 0
x_1_22_0 0
x_1_22_1 0
x_1_22_2 0
x_1_23_0 0
x_1_23_1 0
x_1_23_2 0
x_1_24_0 0
x_1_24_1 0
x_1_24_2 0
x_1_25_0 0
x_1_25_1 0
x_1_25_2 0
x_2_3_0 0
x_2_3_1 0
x_2_3_2 0
x_2_4_0 0
x_2_4_1 0
x_2_4_2 0
x_2_5_0 0
x_2_5_1 0
x_2_5_2 0
x_2_6_0 0
x_2_6_1 0
x_2_6_2 0
x_2_7_0 -2.8671337302227217e-13
x_2_7_1 0
x_2_7_2 -7.6126472961723881e-13
x_2_8_0 0
x_2_8_1 0
x_2_8_2 0
x_2_9_0 0
x_2_9_1 0
x_2_9_2 0
x_2_10_0 0
x_2_10_1 0
x_2_10_2 0
x_2_11_0 0
x_2_11_1 1.0000000000005644e+00
x_2_11_2 0
x_2_12_0 0
x_2_12_1 0
x_2_12_2 0
x_2_13_0 0
x_2_13_1 0
x_2_13_2 0
x_2_14_0 0
x_2_14_1 0
x_2_14_2 0
x_2_15_0 0
x_2_15_1 0
x_2_15_2 0
x_2_16_0 0
x_2_16_1 1
x_2_16_2 0
x_2_17_0 0
x_2_17_1 0
x_2_17_2 0
x_2_18_0 0
x_2_18_1 0
x_2_18_2 0
x_2_19_0 -7.0221302055809163e-13
x_2_19_1 0
x_2_19_2 0
x_2_20_0 0
x_2_20_1 0
x_2_20_2 0
x_2_21_0 0
x_2_21_1 0
x_2_21_2 0
x_2_22_0 0
x_2_22_1 0
x_2_22_2 0
x_2_23_0 0
x_2_23_1 0
x_2_23_2 0
x_2_24_0 0
x_2_24_1 0
x_2_24_2 0
x_2_25_0 0
x_2_25_1 0
x_2_25_2 0
x_3_4_0 0
x_3_4_1 0
x_3_4_2 0
x_3_5_0 -2.0432266989445225e-13
x_3_5_1 1.0000000000002041e+00
x_3_5_2 -2.0432266989445225e-13
x_3_6_0 0
x_3_6_1 0
x_3_6_2 0
x_3_7_0 0
x_3_7_1 0
x_3_7_2 0
x_3_8_0 0
x_3_8_1 0
x_3_8_2 0
x_3_9_0 0
x_3_9_1 0
x_3_9_2 0
x_3_10_0 0
x_3_10_1 0
x_3_10_2 0
x_3_11_0 0
x_3_11_1 0
x_3_11_2 0
x_3_12_0 0
x_3_12_1 0
x_3_12_2 0
x_3_13_0 0
x_3_13_1 1.0000000000000002e+00
x_3_13_2 0
x_3_14_0 0
x_3_14_1 0
x_3_14_2 0
x_3_15_0 0
x_3_15_1 0
x_3_15_2 0
x_3_16_0 0
x_3_16_1 0
x_3_16_2 0
x_3_17_0 0
x_3_17_1 0
x_3_17_2 0
x_3_18_0 0
x_3_18_1 0
x_3_18_2 0
x_3_19_0 0
x_3_19_1 0
x_3_19_2 0
x_3_20_0 0
x_3_20_1 0
x_3_20_2 0
x_3_21_0 0
x_3_21_1 0
x_3_21_2 0
x_3_22_0 2.0432266989445225e-13
x_3_22_1 0
x_3_22_2 0
x_3_23_0 0
x_3_23_1 0
x_3_23_2 0
x_3_24_0 0
x_3_24_1 -2.7093605137196164e-13
x_3_24_2 0
x_3_25_0 0
x_3_25_1 0
x_3_25_2 0
x_4_5_0 0
x_4_5_1 0
x_4_5_2 0
x_4_6_0 0
x_4_6_1 1.0000000000001263e+00
x_4_6_2 0
x_4_7_0 0
x_4_7_1 0
x_4_7_2 0
x_4_8_0 0
x_4_8_1 -1.1264600363602995e-13
x_4_8_2 5.8088950316559362e-13
x_4_9_0 4.0382280852568897e-13
x_4_9_1 3.7442271505483404e-14
x_4_9_2 -1.4679230053715742e-14
x_4_10_0 0
x_4_10_1 0
x_4_10_2 0
x_4_11_0 0
x_4_11_1 0
x_4_11_2 0
x_4_12_0 1.1362491608766169e-12
x_4_12_1 -2.6038893263802265e-13
x_4_12_2 0
x_4_13_0 0
x_4_13_1 0
x_4_13_2 0
x_4_14_0 0
x_4_14_1 1.0000000000007387e+00
x_4_14_2 7.0186568621500971e-13
x_4_15_0 0
x_4_15_1 0
x_4_15_2 0
x_4_16_0 0
x_4_16_1 0
x_4_16_2 0
x_4_17_0 0
x_4_17_1 0
x_4_17_2 0
x_4_18_0 0
x_4_18_1 0
x_4_18_2 0
x_4_19_0 0
x_4_19_1 0
x_4_19_2 0
x_4_20_0 0
x_4_20_1 0
x_4_20_2 0
x_4_21_0 0
x_4_21_1 0
x_4_21_2 0
x_4_22_0 0
x_4_22_1 0
x_4_22_2 0
x_4_23_0 0
x_4_23_1 0
x_4_23_2 0
x_4_24_0 0
x_4_24_1 0
x_4_24_2 0
x_4_25_0 0
x_4_25_1 0
x_4_25_2 0
x_5_6_0 0
x_5_6_1 0
x_5_6_2 0
x_5_7_0 0
x_5_7_1 0
x_5_7_2 0
x_5_8_0 0
x_5_8_1 0
x_5_8_2 0
x_5_9_0 0
x_5_9_1 0
x_5_9_2 0
x_5_10_0 0
x_5_10_1 0
x_5_10_2 0
x_5_11_0 0
x_5_11_1 0
x_5_11_2 0
x_5_12_0 0
x_5_12_1 0
x_5_12_2 0
x_5_13_0 0
x_5_13_1 0
x_5_13_2 -2.9034066817423820e-14
x_5_14_0 0
x_5_14_1 0
x_5_14_2 0
x_5_15_0 1.2265882753936808e-13
x_5_15_1 1.0000000000002041e+00
x_5_15_2 0
x_5_16_0 0
x_5_16_1 0
x_5_16_2 0
x_5_17_0 0
x_5_17_1 0
x_5_17_2 0
x_5_18_0 0
x_5_18_1 0
x_5_18_2 0
x_5_19_0 0
x_5_19_1 0
x_5_19_2 0
x_5_20_0 0
x_5_20_1 0
x_5_20_2 0
x_5_21_0 0
x_5_21_1 0
x_5_21_2 0
x_5_22_0 -3.2700231411553204e-13
x_5_22_1 0
x_5_22_2 -1.7529033780050440e-13
x_5_23_0 0
x_5_23_1 0
x_5_23_2 0
x_5_24_0 0
x_5_24_1 0
x_5_24_2 0
x_5_25_0 0
x_5_25_1 0
x_5_25_2 0
x_6_7_0 0
x_6_7_1 0
x_6_7_2 0
x_6_8_0 0
x_6_8_1 0
x_6_8_2 0
x_6_9_0 -5.1091075814468923e-14
x_6_9_1 1.0000000000001266e+00
x_6_9_2 -5.1063320238853294e-14
x_6_10_0 0
x_6_10_1 0
x_6_10_2 0
x_6_11_0 0
x_6_11_1 0
x_6_11_2 0
x_6_12_0 0
x_6_12_1 0
x_6_12_2 0
x_6_13_0 0
x_6_13_1 0
x_6_13_2 0
x_6_14_0 5.1098014708372830e-14
x_6_14_1 0
x_6_14_2 0
x_6_15_0 0
x_6_15_1 0
x_6_15_2 0
x_6_16_0 0
x_6_16_1 0
x_6_16_2 0
x_6_17_0 0
x_6_17_1 0
x_6_17_2 0
x_6_18_0 0
x_6_18_1 0
x_6_18_2 0
x_6_19_0 0
x_6_19_1 0
x_6_19_2 0
x_6_20_0 0
x_6_20_1 0
x_6_20_2 0
x_6_21_0 0
x_6_21_1 0
x_6_21_2 0
x_6_22_0 0
x_6_22_1 0
x_6_22_2 0
x_6_23_0 0
x_6_23_1 0
x_6_23_2 0
x_6_24_0 0
x_6_24_1 0
x_6_24_2 0
x_6_25_0 0
x_6_25_1 0
x_6_25_2 0
x_7_8_0 0
x_7_8_1 0
x_7_8_2 0
x_7_9_0 0
x_7_9_1 0
x_7_9_2 0
x_7_10_0 9.9999999999975409e-01
x_7_10_1 0
x_7_10_2 0
x_7_11_0 0
x_7_11_1 0
x_7_11_2 0
x_7_12_0 1.0099768243954088e-12
x_7_12_1 1.0000000000006068e+00
x_7_12_2 0
x_7_13_0 0
x_7_13_1 0
x_7_13_2 0
x_7_14_0 -2.9404256807197271e-13
x_7_14_1 0
x_7_14_2 5.64244895457098e-13
x_7_15_0 0
x_7_15_1 0
x_7_15_2 0
x_7_16_0 2.4317700630938077e-13
x_7_16_1 0
x_7_16_2 0
x_7_17_0 0
x_7_17_1 0
x_7_17_2 0
x_7_18_0 0
x_7_18_1 0
x_7_18_2 0
x_7_19_0 -7.5542350153057214e-13
x_7_19_1 9.9999999999959011e-01
x_7_19_2 1.3068517550399181e-14
x_7_20_0 0
x_7_20_1 0
x_7_20_2 0
x_7_21_0 0
x_7_21_1 0
x_7_21_2 0
x_7_22_0 0
x_7_22_1 0
x_7_22_2 0
x_7_23_0 0
x_7_23_1 0
x_7_23_2 0
x_7_24_0 0
x_7_24_1 0
x_7_24_2 0
x_7_25_0 0
x_7_25_1 0
x_7_25_2 0
x_8_9_0 -4.5571879603301113e-13
x_8_9_1 1.0000000000002960e+00
x_8_9_2 -1.2606929389313848e-13
x_8_10_0 0
x_8_10_1 0
x_8_10_2 0
x_8_11_0 0
x_8_11_1 0
x_8_11_2 0
x_8_12_0 -1.8216244485058652e-13
x_8_12_1 0
x_8_12_2 0
x_8_13_0 0
x_8_13_1 0
x_8_13_2 0
x_8_14_0 0
x_8_14_1 0
x_8_14_2 0
x_8_15_0 6.0258048550920762e-13
x_8_15_1 9.9999999999987288e-01
x_8_15_2 1.8739870766282252e-13
x_8_16_0 0
x_8_16_1 0
x_8_16_2 0
x_8_17_0 0
x_8_17_1 0
x_8_17_2 0
x_8_18_0 0
x_8_18_1 0
x_8_18_2 0
x_8_19_0 0
x_8_19_1 0
x_8_19_2 0
x_8_20_0 0
x_8_20_1 0
x_8_20_2 0
x_8_21_0 0
x_8_21_1 0
x_8_21_2 0
x_8_22_0 0
x_8_22_1 0
x_8_22_2 1.4627188349436437e-13
x_8_23_0 0
x_8_23_1 0
x_8_23_2 0
x_8_24_0 0
x_8_24_1 0
x_8_24_2 0
x_8_25_0 0
x_8_25_1 0
x_8_25_2 0
x_9_10_0 0
x_9_10_1 0
x_9_10_2 0
x_9_11_0 0
x_9_11_1 0
x_9_11_2 0
x_9_12_0 0
x_9_12_1 0
x_9_12_2 0
x_9_13_0 0
x_9_13_1 0
x_9_13_2 0
x_9_14_0 0
x_9_14_1 0
x_9_14_2 0
x_9_15_0 0
x_9_15_1 -3.5985103785662886e-13
x_9_15_2 0
x_9_16_0 0
x_9_16_1 0
x_9_16_2 0
x_9_17_0 0
x_9_17_1 0
x_9_17_2 0
x_9_18_0 0
x_9_18_1 0
x_9_18_2 0
x_9_19_0 0
x_9_19_1 0
x_9_19_2 0
x_9_20_0 0
x_9_20_1 0
x_9_20_2 0
x_9_21_0 0
x_9_21_1 0
x_9_21_2 0
x_9_22_0 0
x_9_22_1 0
x_9_22_2 0
x_9_23_0 0
x_9_23_1 0
x_9_23_2 0
x_9_24_0 0
x_9_24_1 0
x_9_24_2 0
x_9_25_0 0
x_9_25_1 0
x_9_25_2 0
x_10_11_0 0
x_10_11_1 0
x_10_11_2 0
x_10_12_0 0
x_10_12_1 0
x_10_12_2 1.1855794124215890e-13
x_10_13_0 0
x_10_13_1 0
x_10_13_2 0
x_10_14_0 0
x_10_14_1 0
x_10_14_2 0
x_10_15_0 0
x_10_15_1 0
x_10_15_2 0
x_10_16_0 0
x_10_16_1 0
x_10_16_2 0
x_10_17_0 0
x_10_17_1 0
x_10_17_2 0
x_10_18_0 0
x_10_18_1 0
x_10_18_2 0
x_10_19_0 -4.8119841444815847e-13
x_10_19_1 0
x_10_19_2 0
x_10_20_0 0
x_10_20_1 0
x_10_20_2 0
x_10_21_0 1.0000000000024278e+00
x_10_21_1 0
x_10_21_2 -5.9182866940510337e-13
x_10_22_0 0
x_10_22_1 0
x_10_22_2 0
x_10_23_0 0
x_10_23_1 0
x_10_23_2 0
x_10_24_0 0
x_10_24_1 0
x_10_24_2 0
x_10_25_0 0
x_10_25_1 0
x_10_25_2 0
x_11_12_0 0
x_11_12_1 0
x_11_12_2 0
x_11_13_0 0
x_11_13_1 0
x_11_13_2 0
x_11_14_0 0
x_11_14_1 0.999999999999562
x_11_14_2 0
x_11_15_0 0
x_11_15_1 0
x_11_15_2 0
x_11_16_0 0
x_11_16_1 -1.7437440380518865e-13
x_11_16_2 0
x_11_17_0 0
x_11_17_1 0
x_11_17_2 0
x_11_18_0 0
x_11_18_1 0
x_11_18_2 0
x_11_19_0 0
x_11_19_1 0
x_11_19_2 0
x_11_20_0 0
x_11_20_1 0
x_11_20_2 0
x_11_21_0 0
x_11_21_1 0
x_11_21_2 0
x_11_22_0 0
x_11_22_1 0
x_11_22_2 0
x_11_23_0 0
x_11_23_1 0
x_11_23_2 0
x_11_24_0 0
x_11_24_1 0
x_11_24_2 0
x_11_25_0 0
x_11_25_1 0
x_11_25_2 0
x_12_13_0 0
x_12_13_1 0
x_12_13_2 0
x_12_14_0 0
x_12_14_1 0
x_12_14_2 0
x_12_15_0 0
x_12_15_1 0
x_12_15_2 0
x_12_16_0 0
x_12_16_1 0
x_12_16_2 0
x_12_17_0 0
x_12_17_1 0
x_12_17_2 0
x_12_18_0 -4.59916826844875e-13
x_12_18_1 0
x_12_18_2 -4.8020094844947181e-13
x_12_19_0 0
x_12_19_1 6.2331216577060644e-13
x_12_19_2 0
x_12_20_0 0
x_12_20_1 0
x_12_20_2 0
x_12_21_0 0
x_12_21_1 0
x_12_21_2 0
x_12_22_0 0
x_12_22_1 0
x_12_22_2 0
x_12_23_0 0
x_12_23_1 0
x_12_23_2 0
x_12_24_0 0
x_12_24_1 0
x_12_24_2 0
x_12_25_0 1.0000000000000064e+00
x_12_25_1 1
x_12_25_2 -4.5122239278327925e-13
x_13_14_0 0
x_13_14_1 0
x_13_14_2 0
x_13_15_0 0
x_13_15_1 2.2394586185470189e-13
x_13_15_2 0
x_13_16_0 0
x_13_16_1 0
x_13_16_2 0
x_13_17_0 0
x_13_17_1 0
x_13_17_2 0
x_13_18_0 0
x_13_18_1 0
x_13_18_2 0
x_13_19_0 0
x_13_19_1 0
x_13_19_2 0
x_13_20_0 0
x_13_20_1 0
x_13_20_2 0
x_13_21_0 0
x_13_21_1 0
x_13_21_2 0
x_13_22_0 -5.8068133634847641e-14
x_13_22_1 9.9999999999977607e-01
x_13_22_2 -8.8269768840748758e-14
x_13_23_0 0
x_13_23_1 0
x_13_23_2 0
x_13_24_0 0
x_13_24_1 0
x_13_24_2 0
x_13_25_0 0
x_13_25_1 0
x_13_25_2 0
x_14_15_0 0
x_14_15_1 0
x_14_15_2 0
x_14_16_0 0
x_14_16_1 0
x_14_16_2 0
x_14_17_0 0
x_14_17_1 0
x_14_17_2 0
x_14_18_0 0
x_14_18_1 0
x_14_18_2 0
x_14_19_0 0
x_14_19_1 0
x_14_19_2 0
x_14_20_0 0
x_14_20_1 0
x_14_20_2 0
x_14_21_0 0
x_14_21_1 0
x_14_21_2 0
x_14_22_0 0
x_14_22_1 0
x_14_22_2 0
x_14_23_0 0
x_14_23_1 0
x_14_23_2 0
x_14_24_0 0
x_14_24_1 0
x_14_24_2 0
x_14_25_0 0
x_14_25_1 0
x_14_25_2 0
x_15_16_0 0
x_15_16_1 0
x_15_16_2 0
x_15_17_0 0
x_15_17_1 0
x_15_17_2 0
x_15_18_0 0
x_15_18_1 0
x_15_18_2 0
x_15_19_0 0
x_15_19_1 0
x_15_19_2 0
x_15_20_0 0
x_15_20_1 0
x_15_20_2 0
x_15_21_0 0
x_15_21_1 0
x_15_21_2 0
x_15_22_0 -4.7992512741679150e-13
x_15_22_1 -1.8893220321558601e-13
x_15_22_2 0
x_15_23_0 0
x_15_23_1 0
x_15_23_2 0
x_15_24_0 0
x_15_24_1 0
x_15_24_2 0
x_15_25_0 0
x_15_25_1 0
x_15_25_2 0
x_16_17_0 2.2700938351327693e-13
x_16_17_1 0
x_16_17_2 0
x_16_18_0 0
x_16_18_1 0
x_16_18_2 0
x_16_19_0 0
x_16_19_1 1.0000000000002467e+00
x_16_19_2 -8.2266832235333709e-13
x_16_20_0 0
x_16_20_1 0
x_16_20_2 0
x_16_21_0 -4.4880765770471953e-13
x_16_21_1 0
x_16_21_2 -5.60218538225854e-13
x_16_22_0 0
x_16_22_1 0
x_16_22_2 0
x_16_23_0 0
x_16_23_1 0
x_16_23_2 0
x_16_24_0 0
x_16_24_1 0
x_16_24_2 0
x_16_25_0 0
x_16_25_1 0
x_16_25_2 0
x_17_18_0 -5.4874160770879143e-13
x_17_18_1 0
x_17_18_2 0
x_17_19_0 1.2945547411824521e-13
x_17_19_1 0
x_17_19_2 0
x_17_20_0 0
x_17_20_1 0
x_17_20_2 0
x_17_21_0 9.9999999999923728e-01
x_17_21_1 0
x_17_21_2 0
x_17_22_0 0
x_17_22_1 0
x_17_22_2 0
x_17_23_0 0
x_17_23_1 0
x_17_23_2 0
x_17_24_0 0
x_17_24_1 3.2970356626513454e-14
x_17_24_2 0
x_17_25_0 0
x_17_25_1 0
x_17_25_2 0
x_18_19_0 0
x_18_19_1 0
x_18_19_2 0
x_18_20_0 1.5238366124492586e-12
x_18_20_1 1.0000000000004656e+00
x_18_20_2 0
x_18_21_0 0
x_18_21_1 0
x_18_21_2 0
x_18_22_0 0
x_18_22_1 0
x_18_22_2 0
x_18_23_0 0
x_18_23_1 0
x_18_23_2 0
x_18_24_0 0
x_18_24_1 0
x_18_24_2 0
x_18_25_0 1.0000000000000078e+00
x_18_25_1 1
x_18_25_2 -4.8019747900251986e-13
x_19_20_0 0
x_19_20_1 0
x_19_20_2 0
x_19_21_0 5.7258364716261667e-13
x_19_21_1 0
x_19_21_2 3.4953984151542272e-13
x_19_22_0 0
x_19_22_1 0
x_19_22_2 0
x_19_23_0 0
x_19_23_1 0
x_19_23_2 0
x_19_24_0 0
x_19_24_1 0
x_19_24_2 0
x_19_25_0 0
x_19_25_1 0
x_19_25_2 0
x_20_21_0 0
x_20_21_1 0
x_20_21_2 0
x_20_22_0 0
x_20_22_1 -7.7340911452949967e-13
x_20_22_2 0
x_20_23_0 0
x_20_23_1 0
x_20_23_2 0
x_20_24_0 0
x_20_24_1 5.20798681957757e-14
x_20_24_2 0
x_20_25_0 0
x_20_25_1 0
x_20_25_2 0
x_21_22_0 0
x_21_22_1 0
x_21_22_2 0
x_21_23_0 0
x_21_23_1 0
x_21_23_2 0
x_21_24_0 0
x_21_24_1 0
x_21_24_2 0
x_21_25_0 0
x_21_25_1 0
x_21_25_2 0
x_22_23_0 0
x_22_23_1 9.9999999999942346e-01
x_22_23_2 0
x_22_24_0 0
x_22_24_1 7.9240780603839767e-13
x_22_24_2 0
x_22_25_0 0
x_22_25_1 9.3140772872146727e-13
x_22_25_2 0
x_23_24_0 0
x_23_24_1 9.9999999999942346e-01
x_23_24_2 0
x_23_25_0 0
x_23_25_1 0
x_23_25_2 0
x_24_25_0 0
x_24_25_1 0
x_24_25_2 0
